p cnf 42 552
1 4 7 10 13 16 19 22 25 28 31 34 37 40 0
2 5 8 11 14 17 20 23 26 29 32 35 38 41 0
3 6 9 12 15 18 21 24 27 30 33 36 39 42 0
-1 -11 0
-1 -12 0
-2 -12 0
-1 -17 0
-1 -18 0
-2 -18 0
-1 -26 0
-1 -27 0
-2 -27 0
-1 -35 0
-1 -36 0
-2 -36 0
-1 -38 0
-1 -39 0
-2 -39 0
-4 -20 0
-4 -21 0
-5 -21 0
-4 -29 0
-4 -30 0
-5 -30 0
-4 -35 0
-4 -36 0
-5 -36 0
-4 -38 0
-4 -39 0
-5 -39 0
-7 -17 0
-7 -18 0
-8 -18 0
-7 -20 0
-7 -21 0
-8 -21 0
-7 -23 0
-7 -24 0
-8 -24 0
-7 -35 0
-7 -36 0
-8 -36 0
-7 -38 0
-7 -39 0
-8 -39 0
-10 -2 0
-10 -3 0
-11 -3 0
-10 -14 0
-10 -15 0
-11 -15 0
-10 -32 0
-10 -33 0
-11 -33 0
-10 -41 0
-10 -42 0
-11 -42 0
-13 -11 0
-13 -12 0
-14 -12 0
-13 -20 0
-13 -21 0
-14 -21 0
-13 -29 0
-13 -30 0
-14 -30 0
-13 -38 0
-13 -39 0
-14 -39 0
-16 -2 0
-16 -3 0
-17 -3 0
-16 -8 0
-16 -9 0
-17 -9 0
-16 -20 0
-16 -21 0
-17 -21 0
-16 -23 0
-16 -24 0
-17 -24 0
-16 -26 0
-16 -27 0
-17 -27 0
-16 -29 0
-16 -30 0
-17 -30 0
-16 -35 0
-16 -36 0
-17 -36 0
-19 -5 0
-19 -6 0
-20 -6 0
-19 -8 0
-19 -9 0
-20 -9 0
-19 -14 0
-19 -15 0
-20 -15 0
-19 -17 0
-19 -18 0
-20 -18 0
-19 -23 0
-19 -24 0
-20 -24 0
-19 -26 0
-19 -27 0
-20 -27 0
-19 -29 0
-19 -30 0
-20 -30 0
-19 -32 0
-19 -33 0
-20 -33 0
-19 -38 0
-19 -39 0
-20 -39 0
-22 -8 0
-22 -9 0
-23 -9 0
-22 -17 0
-22 -18 0
-23 -18 0
-22 -20 0
-22 -21 0
-23 -21 0
-22 -29 0
-22 -30 0
-23 -30 0
-22 -38 0
-22 -39 0
-23 -39 0
-22 -41 0
-22 -42 0
-23 -42 0
-25 -2 0
-25 -3 0
-26 -3 0
-25 -17 0
-25 -18 0
-26 -18 0
-25 -20 0
-25 -21 0
-26 -21 0
-25 -32 0
-25 -33 0
-26 -33 0
-25 -38 0
-25 -39 0
-26 -39 0
-28 -5 0
-28 -6 0
-29 -6 0
-28 -14 0
-28 -15 0
-29 -15 0
-28 -17 0
-28 -18 0
-29 -18 0
-28 -20 0
-28 -21 0
-29 -21 0
-28 -23 0
-28 -24 0
-29 -24 0
-28 -32 0
-28 -33 0
-29 -33 0
-31 -11 0
-31 -12 0
-32 -12 0
-31 -20 0
-31 -21 0
-32 -21 0
-31 -26 0
-31 -27 0
-32 -27 0
-31 -29 0
-31 -30 0
-32 -30 0
-31 -35 0
-31 -36 0
-32 -36 0
-31 -41 0
-31 -42 0
-32 -42 0
-34 -2 0
-34 -3 0
-35 -3 0
-34 -5 0
-34 -6 0
-35 -6 0
-34 -8 0
-34 -9 0
-35 -9 0
-34 -17 0
-34 -18 0
-35 -18 0
-34 -32 0
-34 -33 0
-35 -33 0
-37 -2 0
-37 -3 0
-38 -3 0
-37 -5 0
-37 -6 0
-38 -6 0
-37 -8 0
-37 -9 0
-38 -9 0
-37 -14 0
-37 -15 0
-38 -15 0
-37 -20 0
-37 -21 0
-38 -21 0
-37 -23 0
-37 -24 0
-38 -24 0
-37 -26 0
-37 -27 0
-38 -27 0
-37 -41 0
-37 -42 0
-38 -42 0
-40 -11 0
-40 -12 0
-41 -12 0
-40 -23 0
-40 -24 0
-41 -24 0
-40 -32 0
-40 -33 0
-41 -33 0
-40 -38 0
-40 -39 0
-41 -39 0
-1 -2 0
-4 -5 0
-7 -8 0
-10 -11 0
-13 -14 0
-16 -17 0
-19 -20 0
-22 -23 0
-25 -26 0
-28 -29 0
-31 -32 0
-34 -35 0
-37 -38 0
-40 -41 0
-1 -3 0
-4 -6 0
-7 -9 0
-10 -12 0
-13 -15 0
-16 -18 0
-19 -21 0
-22 -24 0
-25 -27 0
-28 -30 0
-31 -33 0
-34 -36 0
-37 -39 0
-40 -42 0
-2 -3 0
-5 -6 0
-8 -9 0
-11 -12 0
-14 -15 0
-17 -18 0
-20 -21 0
-23 -24 0
-26 -27 0
-29 -30 0
-32 -33 0
-35 -36 0
-38 -39 0
-41 -42 0
-1 -4 0
-1 -7 0
-1 -10 0
-1 -13 0
-1 -16 0
-1 -19 0
-1 -22 0
-1 -25 0
-1 -28 0
-1 -31 0
-1 -34 0
-1 -37 0
-1 -40 0
-4 -7 0
-4 -10 0
-4 -13 0
-4 -16 0
-4 -19 0
-4 -22 0
-4 -25 0
-4 -28 0
-4 -31 0
-4 -34 0
-4 -37 0
-4 -40 0
-7 -10 0
-7 -13 0
-7 -16 0
-7 -19 0
-7 -22 0
-7 -25 0
-7 -28 0
-7 -31 0
-7 -34 0
-7 -37 0
-7 -40 0
-10 -13 0
-10 -16 0
-10 -19 0
-10 -22 0
-10 -25 0
-10 -28 0
-10 -31 0
-10 -34 0
-10 -37 0
-10 -40 0
-13 -16 0
-13 -19 0
-13 -22 0
-13 -25 0
-13 -28 0
-13 -31 0
-13 -34 0
-13 -37 0
-13 -40 0
-16 -19 0
-16 -22 0
-16 -25 0
-16 -28 0
-16 -31 0
-16 -34 0
-16 -37 0
-16 -40 0
-19 -22 0
-19 -25 0
-19 -28 0
-19 -31 0
-19 -34 0
-19 -37 0
-19 -40 0
-22 -25 0
-22 -28 0
-22 -31 0
-22 -34 0
-22 -37 0
-22 -40 0
-25 -28 0
-25 -31 0
-25 -34 0
-25 -37 0
-25 -40 0
-28 -31 0
-28 -34 0
-28 -37 0
-28 -40 0
-31 -34 0
-31 -37 0
-31 -40 0
-34 -37 0
-34 -40 0
-37 -40 0
-2 -5 0
-2 -8 0
-2 -11 0
-2 -14 0
-2 -17 0
-2 -20 0
-2 -23 0
-2 -26 0
-2 -29 0
-2 -32 0
-2 -35 0
-2 -38 0
-2 -41 0
-5 -8 0
-5 -11 0
-5 -14 0
-5 -17 0
-5 -20 0
-5 -23 0
-5 -26 0
-5 -29 0
-5 -32 0
-5 -35 0
-5 -38 0
-5 -41 0
-8 -11 0
-8 -14 0
-8 -17 0
-8 -20 0
-8 -23 0
-8 -26 0
-8 -29 0
-8 -32 0
-8 -35 0
-8 -38 0
-8 -41 0
-11 -14 0
-11 -17 0
-11 -20 0
-11 -23 0
-11 -26 0
-11 -29 0
-11 -32 0
-11 -35 0
-11 -38 0
-11 -41 0
-14 -17 0
-14 -20 0
-14 -23 0
-14 -26 0
-14 -29 0
-14 -32 0
-14 -35 0
-14 -38 0
-14 -41 0
-17 -20 0
-17 -23 0
-17 -26 0
-17 -29 0
-17 -32 0
-17 -35 0
-17 -38 0
-17 -41 0
-20 -23 0
-20 -26 0
-20 -29 0
-20 -32 0
-20 -35 0
-20 -38 0
-20 -41 0
-23 -26 0
-23 -29 0
-23 -32 0
-23 -35 0
-23 -38 0
-23 -41 0
-26 -29 0
-26 -32 0
-26 -35 0
-26 -38 0
-26 -41 0
-29 -32 0
-29 -35 0
-29 -38 0
-29 -41 0
-32 -35 0
-32 -38 0
-32 -41 0
-35 -38 0
-35 -41 0
-38 -41 0
-3 -6 0
-3 -9 0
-3 -12 0
-3 -15 0
-3 -18 0
-3 -21 0
-3 -24 0
-3 -27 0
-3 -30 0
-3 -33 0
-3 -36 0
-3 -39 0
-3 -42 0
-6 -9 0
-6 -12 0
-6 -15 0
-6 -18 0
-6 -21 0
-6 -24 0
-6 -27 0
-6 -30 0
-6 -33 0
-6 -36 0
-6 -39 0
-6 -42 0
-9 -12 0
-9 -15 0
-9 -18 0
-9 -21 0
-9 -24 0
-9 -27 0
-9 -30 0
-9 -33 0
-9 -36 0
-9 -39 0
-9 -42 0
-12 -15 0
-12 -18 0
-12 -21 0
-12 -24 0
-12 -27 0
-12 -30 0
-12 -33 0
-12 -36 0
-12 -39 0
-12 -42 0
-15 -18 0
-15 -21 0
-15 -24 0
-15 -27 0
-15 -30 0
-15 -33 0
-15 -36 0
-15 -39 0
-15 -42 0
-18 -21 0
-18 -24 0
-18 -27 0
-18 -30 0
-18 -33 0
-18 -36 0
-18 -39 0
-18 -42 0
-21 -24 0
-21 -27 0
-21 -30 0
-21 -33 0
-21 -36 0
-21 -39 0
-21 -42 0
-24 -27 0
-24 -30 0
-24 -33 0
-24 -36 0
-24 -39 0
-24 -42 0
-27 -30 0
-27 -33 0
-27 -36 0
-27 -39 0
-27 -42 0
-30 -33 0
-30 -36 0
-30 -39 0
-30 -42 0
-33 -36 0
-33 -39 0
-33 -42 0
-36 -39 0
-36 -42 0
-39 -42 0
